benchmark/results/graph__10-1000-0.10-02_17/graph__10-1000-0.10-02_17_QuintonOs_Benders_aux.lp
\ This file has been generated by DOcplex
\ ENCODING=ISO-8859-1
\Problem name: Quinton Bounded Benders_auxiliary_sub

Minimize
 obj: 0.001251564456 pi_nr_a0 + 0.000889074896 pi_nr_a1
      + 0.001096491228 pi_nr_a2 + 0.000887311446 pi_nr_a3
      + 0.001109877913 pi_nr_a4 + 0.001072961373 pi_nr_a5
      + 0.001310760854 pi_nr_a6 + 0.000888099467 pi_nr_a7
      + 0.001026350180 pi_nr_a8 + 0.001176892008 pi_nr_a9 + pi_p_a2_a1
      + pi_p_a0_a4 + pi_p_a5_a2 + pi_p_a5_a7 + pi_p_a8_a6 + pi_p_a5_a6
      + 602.346923551903 pi_d_a0_a1_proc_0 + 591.070556369451 pi_d_a1_a0_proc_0
      + 0.008773709182 pi_d_a0_a2_proc_0 + 0.991226290818 pi_d_a2_a0_proc_0
      + 0.759754316674 pi_d_a0_a4_proc_0 + 0.240245952548 pi_d_a4_a0_proc_0
      + 0.759751319536 pi_d_a0_a5_proc_0 + 0.240248680464 pi_d_a5_a0_proc_0
      + 1017.092165808940 pi_d_a0_a6_proc_0
      + 1020.323304936195 pi_d_a6_a0_proc_0 + 602.759751453108 pi_d_a0_a8_proc_0
      + 591.240248816521 pi_d_a8_a0_proc_0 + 1054.757732068305 pi_d_a0_a9_proc_0
      + 1057.293047237326 pi_d_a9_a0_proc_0 + 602.115966515069 pi_d_a1_a2_proc_0
      + 591.301513406285 pi_d_a2_a1_proc_0 + 591.396697916370 pi_d_a1_a3_proc_1
      + 603.185822162276 pi_d_a3_a1_proc_1 + 1796.010964273036 pi_d_a1_a4_proc_1
      + 602.428444463612 pi_d_a1_a4_proc_0 + 1784.571555536389 pi_d_a4_a1_proc_1
      + 590.989035726964 pi_d_a4_a1_proc_0 + 1787.040061535631 pi_d_a1_a5_proc_1
      + 593.457541456985 pi_d_a1_a5_proc_0 + 1793.542458543015 pi_d_a5_a1_proc_1
      + 599.959938464369 pi_d_a5_a1_proc_0 + 764.509020328396 pi_d_a1_a6_proc_1
      + 1607.341970994884 pi_d_a1_a6_proc_0 + 779.658029005116 pi_d_a6_a1_proc_1
      + 1622.490979671604 pi_d_a6_a1_proc_0 + 591.669054361922 pi_d_a1_a7_proc_1
      + 602.913465716724 pi_d_a7_a1_proc_1 + 1193.883789208295 pi_d_a1_a8_proc_1
      + 1193.301269399278 pi_d_a1_a8_proc_0
      + 1193.698730600722 pi_d_a8_a1_proc_1
      + 1193.116210791705 pi_d_a8_a1_proc_0 + 741.416979131889 pi_d_a1_a9_proc_1
      + 1658.885238358874 pi_d_a1_a9_proc_0 + 728.114761641126 pi_d_a9_a1_proc_1
      + 1645.583020868111 pi_d_a9_a1_proc_0 + 1.499711172534 pi_d_a2_a4_proc_0
      - 0.499710903311 pi_d_a4_a2_proc_0 + 0.999711036657 pi_d_a2_a5_proc_0
      + 0.000288963343 pi_d_a5_a2_proc_0 + 1017.096071611914 pi_d_a2_a6_proc_0
      + 1020.319399133220 pi_d_a6_a2_proc_0 + 591.499711170141 pi_d_a2_a8_proc_0
      + 602.500289099489 pi_d_a8_a2_proc_0 + 1057.453044591937 pi_d_a2_a9_proc_0
      + 1054.597734713694 pi_d_a9_a2_proc_0
      + 1193.533779053520 pi_d_a3_a4_proc_1
      + 1193.466220677258 pi_d_a4_a3_proc_1
      + 1193.491511644796 pi_d_a3_a5_proc_1
      + 1193.508488355204 pi_d_a5_a3_proc_1 + 174.175251927015 pi_d_a3_a6_proc_1
      + 176.409277327851 pi_d_a6_a3_proc_1 + 0.897446987248 pi_d_a3_a7_proc_1
      + 0.102553012752 pi_d_a7_a3_proc_1 + 600.161424542021 pi_d_a3_a8_proc_1
      + 593.838575188349 pi_d_a8_a3_proc_1 + 137.577135469182 pi_d_a3_a9_proc_1
      + 138.372085225186 pi_d_a9_a3_proc_1 + 2385.999999866743 pi_d_a4_a5_proc_1
      + 0.000000135965 pi_d_a4_a5_proc_0 + 2386.999999864035 pi_d_a5_a4_proc_1
      + 1.000000133257 pi_d_a5_a4_proc_0 + 1370.046536793015 pi_d_a4_a6_proc_1
      + 1020.462007807372 pi_d_a4_a6_proc_0
      + 1366.537992192628 pi_d_a6_a4_proc_1
      + 1016.953463206985 pi_d_a6_a4_proc_0
      + 1204.999999864148 pi_d_a4_a7_proc_1
      + 1181.999999866630 pi_d_a7_a4_proc_1
      + 1795.499999730577 pi_d_a4_a8_proc_1 + 602.500000269428 pi_d_a4_a8_proc_0
      + 1784.499999730572 pi_d_a8_a4_proc_1 + 591.500000269424 pi_d_a8_a4_proc_0
      + 1341.207032079851 pi_d_a4_a9_proc_1
      + 1066.257811654704 pi_d_a4_a9_proc_0
      + 1320.742188345296 pi_d_a9_a4_proc_1
      + 1045.792967920150 pi_d_a9_a4_proc_0
      + 1378.140897416048 pi_d_a5_a6_proc_1
      + 1028.556368161183 pi_d_a5_a6_proc_0
      + 1358.443631838817 pi_d_a6_a5_proc_1
      + 1008.859102583952 pi_d_a6_a5_proc_0 + 1205 pi_d_a5_a7_proc_1
      + 1182 pi_d_a7_a5_proc_1 + 1795.999999866428 pi_d_a5_a8_proc_1
      + 603.000000136058 pi_d_a5_a8_proc_0 + 1783.999999863942 pi_d_a8_a5_proc_1
      + 591.000000133572 pi_d_a8_a5_proc_0 + 1341.207032213220 pi_d_a5_a9_proc_1
      + 1066.257811518852 pi_d_a5_a9_proc_0
      + 1320.742188481148 pi_d_a9_a5_proc_1
      + 1045.792967786780 pi_d_a9_a5_proc_0 + 177.403314301847 pi_d_a6_a7_proc_1
      + 173.181214953019 pi_d_a7_a6_proc_1 + 773.381742067826 pi_d_a6_a8_proc_1
      + 1616.797213082589 pi_d_a6_a8_proc_0 + 770.202786917410 pi_d_a8_a6_proc_1
      + 1613.618257932174 pi_d_a8_a6_proc_0 + 313.500883776290 pi_d_a6_a9_proc_1
      + 2074.967133827055 pi_d_a6_a9_proc_0 + 312.032866172944 pi_d_a9_a6_proc_1
      + 2073.499116223710 pi_d_a9_a6_proc_0 + 602.499999863829 pi_d_a7_a8_proc_1
      + 591.499999866541 pi_d_a8_a7_proc_1 + 136.207032213220 pi_d_a7_a9_proc_1
      + 139.742188481148 pi_d_a9_a7_proc_1 + 739.207032079649 pi_d_a8_a9_proc_1
      + 1657.257811654909 pi_d_a8_a9_proc_0 + 729.742188345091 pi_d_a9_a8_proc_1
      + 1647.792967920351 pi_d_a9_a8_proc_0 + pi_y2_a0_proc_0
      + 0.500244140854 pi_y2_a1_proc_0 + 0.499755859146 pi_y2_a1_proc_1
      + pi_y2_a2_proc_0 + pi_y2_a3_proc_1 + 0.999999999887 pi_y2_a4_proc_0
      + 0.000000000113 pi_y2_a4_proc_1 + pi_y2_a5_proc_0
      + 0.000000000000 pi_y2_a5_proc_1 + 0.146514890719 pi_y2_a6_proc_0
      + 0.853485109281 pi_y2_a6_proc_1 + pi_y2_a7_proc_1
      + 0.499999999887 pi_y2_a8_proc_0 + 0.500000000113 pi_y2_a8_proc_1
      + 0.115234375815 pi_y2_a9_proc_0 + 0.884765624185 pi_y2_a9_proc_1
Subject To
 c1: 0.001251564456 pi_nr_a0 + 0.000901713255 pi_nr_a1 + 0.001096491228 pi_nr_a2
     + 0.000887311446 pi_nr_a3 + 0.001109877913 pi_nr_a4
     + 0.001072961373 pi_nr_a5 + 0.001129943503 pi_nr_a6
     + 0.000888099467 pi_nr_a7 + 0.001187648456 pi_nr_a8
     + 0.001221001221 pi_nr_a9 + pi_p_a2_a1 + pi_p_a0_a4 + pi_p_a5_a2
     + pi_p_a5_a7 + pi_p_a8_a6 + pi_p_a5_a6 + pi_d_a0_a1_proc_0
     + pi_d_a2_a0_proc_0 + pi_d_a0_a4_proc_0 + pi_d_a0_a5_proc_0
     + 1182 pi_d_a0_a6_proc_0 + 1205 pi_d_a6_a0_proc_0 + 1205 pi_d_a0_a8_proc_0
     + 1182 pi_d_a8_a0_proc_0 + 1182 pi_d_a0_a9_proc_0 + 1205 pi_d_a9_a0_proc_0
     + pi_d_a2_a1_proc_0 + 1182 pi_d_a1_a3_proc_1 + 1205 pi_d_a3_a1_proc_1
     + 2387 pi_d_a1_a4_proc_1 + pi_d_a1_a4_proc_0 + 2386 pi_d_a4_a1_proc_1
     + 2387 pi_d_a1_a5_proc_1 + pi_d_a1_a5_proc_0 + 2386 pi_d_a5_a1_proc_1
     + 1182 pi_d_a1_a6_proc_1 + 1182 pi_d_a1_a6_proc_0 + 1205 pi_d_a6_a1_proc_1
     + 1205 pi_d_a6_a1_proc_0 + 1182 pi_d_a1_a7_proc_1 + 1205 pi_d_a7_a1_proc_1
     + 1205 pi_d_a1_a8_proc_1 + 1205 pi_d_a1_a8_proc_0 + 1182 pi_d_a8_a1_proc_1
     + 1182 pi_d_a8_a1_proc_0 + 1205 pi_d_a1_a9_proc_1 + 1205 pi_d_a1_a9_proc_0
     + 1182 pi_d_a9_a1_proc_1 + 1182 pi_d_a9_a1_proc_0 + 2 pi_d_a2_a4_proc_0
     - pi_d_a4_a2_proc_0 + pi_d_a2_a5_proc_0 + 1182 pi_d_a2_a6_proc_0
     + 1205 pi_d_a6_a2_proc_0 + 1182 pi_d_a2_a8_proc_0 + 1205 pi_d_a8_a2_proc_0
     + 1205 pi_d_a2_a9_proc_0 + 1182 pi_d_a9_a2_proc_0 + 1205 pi_d_a3_a4_proc_1
     + 1182 pi_d_a4_a3_proc_1 + 1182 pi_d_a3_a5_proc_1 + 1205 pi_d_a5_a3_proc_1
     + pi_d_a3_a6_proc_1 + pi_d_a3_a7_proc_1 + pi_d_a3_a8_proc_1
     + pi_d_a3_a9_proc_1 + 2386 pi_d_a4_a5_proc_1 + 2387 pi_d_a5_a4_proc_1
     + pi_d_a5_a4_proc_0 + 1205 pi_d_a4_a6_proc_1 + 1205 pi_d_a4_a6_proc_0
     + 1182 pi_d_a6_a4_proc_1 + 1182 pi_d_a6_a4_proc_0 + 1205 pi_d_a4_a7_proc_1
     + 1182 pi_d_a7_a4_proc_1 + 1205 pi_d_a4_a8_proc_1 + 1205 pi_d_a4_a8_proc_0
     + 1182 pi_d_a8_a4_proc_1 + 1182 pi_d_a8_a4_proc_0 + 1205 pi_d_a4_a9_proc_1
     + 1205 pi_d_a4_a9_proc_0 + 1182 pi_d_a9_a4_proc_1 + 1182 pi_d_a9_a4_proc_0
     + 1205 pi_d_a5_a6_proc_1 + 1205 pi_d_a5_a6_proc_0 + 1182 pi_d_a6_a5_proc_1
     + 1182 pi_d_a6_a5_proc_0 + 1205 pi_d_a5_a7_proc_1 + 1182 pi_d_a7_a5_proc_1
     + 1205 pi_d_a5_a8_proc_1 + 1205 pi_d_a5_a8_proc_0 + 1182 pi_d_a8_a5_proc_1
     + 1182 pi_d_a8_a5_proc_0 + 1205 pi_d_a5_a9_proc_1 + 1205 pi_d_a5_a9_proc_0
     + 1182 pi_d_a9_a5_proc_1 + 1182 pi_d_a9_a5_proc_0 + pi_d_a6_a7_proc_1
     + 2386 pi_d_a6_a8_proc_0 + pi_d_a8_a6_proc_1 + 2387 pi_d_a8_a6_proc_0
     + pi_d_a6_a9_proc_1 + 2387 pi_d_a6_a9_proc_0 + 2386 pi_d_a9_a6_proc_0
     + pi_d_a8_a7_proc_1 + pi_d_a9_a7_proc_1 + pi_d_a8_a9_proc_1
     + 2387 pi_d_a8_a9_proc_0 + 2386 pi_d_a9_a8_proc_0 + pi_y2_a0_proc_0
     + pi_y2_a1_proc_0 + pi_y2_a2_proc_0 + pi_y2_a3_proc_1 + pi_y2_a4_proc_0
     + pi_y2_a5_proc_0 + pi_y2_a6_proc_1 + pi_y2_a7_proc_1 + pi_y2_a8_proc_1
     + pi_y2_a9_proc_1 = 0.000207684320
 c2: pi_nr_a0 + pi_nr_a1 + pi_nr_a2 + pi_nr_a3 + pi_nr_a4 + pi_nr_a5 + pi_nr_a6
     + pi_nr_a7 + pi_nr_a8 + pi_nr_a9 - pi_y1_a0 - pi_y1_a1 - pi_y1_a2
     - pi_y1_a3 - pi_y1_a4 - pi_y1_a5 - pi_y1_a6 - pi_y1_a7 - pi_y1_a8
     - pi_y1_a9 >= 1
 c3: - pi_p_a1_a0 + pi_p_a0_a4 + pi_d_a0_a1_proc_0 - pi_d_a1_a0_proc_0
     + pi_d_a0_a2_proc_0 - pi_d_a2_a0_proc_0 + pi_d_a0_a4_proc_0
     - pi_d_a4_a0_proc_0 + pi_d_a0_a5_proc_0 - pi_d_a5_a0_proc_0
     + pi_d_a0_a6_proc_0 - pi_d_a6_a0_proc_0 + pi_d_a0_a8_proc_0
     - pi_d_a8_a0_proc_0 + pi_d_a0_a9_proc_0 - pi_d_a9_a0_proc_0 >= 0
 c4: 799 pi_p_a0_a4 + 799 pi_d_a0_a1_proc_0 + 799 pi_d_a0_a2_proc_0
     + 799 pi_d_a0_a4_proc_0 + 799 pi_d_a0_a5_proc_0 + 799 pi_d_a0_a6_proc_0
     + 799 pi_d_a0_a8_proc_0 + 799 pi_d_a0_a9_proc_0 + pi_y1_a0
     + pi_y2_a0_proc_0 >= 0
 c5: pi_p_a1_a0 - pi_p_a2_a1 - pi_d_a0_a1_proc_0 + pi_d_a1_a0_proc_0
     + pi_d_a1_a2_proc_0 - pi_d_a2_a1_proc_0 + pi_d_a1_a3_proc_1
     - pi_d_a3_a1_proc_1 + pi_d_a1_a4_proc_1 + pi_d_a1_a4_proc_0
     - pi_d_a4_a1_proc_1 - pi_d_a4_a1_proc_0 + pi_d_a1_a5_proc_1
     + pi_d_a1_a5_proc_0 - pi_d_a5_a1_proc_1 - pi_d_a5_a1_proc_0
     + pi_d_a1_a6_proc_1 + pi_d_a1_a6_proc_0 - pi_d_a6_a1_proc_1
     - pi_d_a6_a1_proc_0 + pi_d_a1_a7_proc_1 - pi_d_a7_a1_proc_1
     + pi_d_a1_a8_proc_1 + pi_d_a1_a8_proc_0 - pi_d_a8_a1_proc_1
     - pi_d_a8_a1_proc_0 + pi_d_a1_a9_proc_1 + pi_d_a1_a9_proc_0
     - pi_d_a9_a1_proc_1 - pi_d_a9_a1_proc_0 >= 0
 c6: 1109 pi_p_a1_a0 + 1109 pi_d_a1_a0_proc_0 + 1109 pi_d_a1_a2_proc_0
     + 1109 pi_d_a1_a4_proc_0 + 1109 pi_d_a1_a5_proc_0 + 1109 pi_d_a1_a6_proc_0
     + 1109 pi_d_a1_a8_proc_0 + 1109 pi_d_a1_a9_proc_0 + pi_y1_a1
     + pi_y2_a1_proc_0 >= 0
 c7: 1141 pi_p_a1_a0 + 1141 pi_d_a1_a3_proc_1 + 1141 pi_d_a1_a4_proc_1
     + 1141 pi_d_a1_a5_proc_1 + 1141 pi_d_a1_a6_proc_1 + 1141 pi_d_a1_a7_proc_1
     + 1141 pi_d_a1_a8_proc_1 + 1141 pi_d_a1_a9_proc_1 + pi_y1_a1
     + pi_y2_a1_proc_1 >= 0
 c8: pi_p_a2_a1 - pi_p_a3_a2 - pi_p_a5_a2 - pi_p_a6_a2 - pi_d_a0_a2_proc_0
     + pi_d_a2_a0_proc_0 - pi_d_a1_a2_proc_0 + pi_d_a2_a1_proc_0
     + pi_d_a2_a4_proc_0 - pi_d_a4_a2_proc_0 + pi_d_a2_a5_proc_0
     - pi_d_a5_a2_proc_0 + pi_d_a2_a6_proc_0 - pi_d_a6_a2_proc_0
     + pi_d_a2_a8_proc_0 - pi_d_a8_a2_proc_0 + pi_d_a2_a9_proc_0
     - pi_d_a9_a2_proc_0 >= 0
 c9: 912 pi_p_a2_a1 + 912 pi_d_a2_a0_proc_0 + 912 pi_d_a2_a1_proc_0
     + 912 pi_d_a2_a4_proc_0 + 912 pi_d_a2_a5_proc_0 + 912 pi_d_a2_a6_proc_0
     + 912 pi_d_a2_a8_proc_0 + 912 pi_d_a2_a9_proc_0 + pi_y1_a2
     + pi_y2_a2_proc_0 >= 0
 c10: pi_p_a3_a2 - pi_d_a1_a3_proc_1 + pi_d_a3_a1_proc_1 + pi_d_a3_a4_proc_1
      - pi_d_a4_a3_proc_1 + pi_d_a3_a5_proc_1 - pi_d_a5_a3_proc_1
      + pi_d_a3_a6_proc_1 - pi_d_a6_a3_proc_1 + pi_d_a3_a7_proc_1
      - pi_d_a7_a3_proc_1 + pi_d_a3_a8_proc_1 - pi_d_a8_a3_proc_1
      + pi_d_a3_a9_proc_1 - pi_d_a9_a3_proc_1 >= 0
 c11: 1127 pi_p_a3_a2 + 1127 pi_d_a3_a1_proc_1 + 1127 pi_d_a3_a4_proc_1
      + 1127 pi_d_a3_a5_proc_1 + 1127 pi_d_a3_a6_proc_1 + 1127 pi_d_a3_a7_proc_1
      + 1127 pi_d_a3_a8_proc_1 + 1127 pi_d_a3_a9_proc_1 + pi_y1_a3
      + pi_y2_a3_proc_1 >= 0
 c12: - pi_p_a0_a4 + pi_p_a4_a8 - pi_p_a9_a4 - pi_d_a0_a4_proc_0
      + pi_d_a4_a0_proc_0 - pi_d_a1_a4_proc_1 - pi_d_a1_a4_proc_0
      + pi_d_a4_a1_proc_1 + pi_d_a4_a1_proc_0 - pi_d_a2_a4_proc_0
      + pi_d_a4_a2_proc_0 - pi_d_a3_a4_proc_1 + pi_d_a4_a3_proc_1
      + pi_d_a4_a5_proc_1 + pi_d_a4_a5_proc_0 - pi_d_a5_a4_proc_1
      - pi_d_a5_a4_proc_0 + pi_d_a4_a6_proc_1 + pi_d_a4_a6_proc_0
      - pi_d_a6_a4_proc_1 - pi_d_a6_a4_proc_0 + pi_d_a4_a7_proc_1
      - pi_d_a7_a4_proc_1 + pi_d_a4_a8_proc_1 + pi_d_a4_a8_proc_0
      - pi_d_a8_a4_proc_1 - pi_d_a8_a4_proc_0 + pi_d_a4_a9_proc_1
      + pi_d_a4_a9_proc_0 - pi_d_a9_a4_proc_1 - pi_d_a9_a4_proc_0 >= 0
 c13: 901 pi_p_a4_a8 + 901 pi_d_a4_a0_proc_0 + 901 pi_d_a4_a1_proc_0
      + 901 pi_d_a4_a2_proc_0 + 901 pi_d_a4_a5_proc_0 + 901 pi_d_a4_a6_proc_0
      + 901 pi_d_a4_a8_proc_0 + 901 pi_d_a4_a9_proc_0 + pi_y1_a4
      + pi_y2_a4_proc_0 >= 0
 c14: 1157 pi_p_a4_a8 + 1157 pi_d_a4_a1_proc_1 + 1157 pi_d_a4_a3_proc_1
      + 1157 pi_d_a4_a5_proc_1 + 1157 pi_d_a4_a6_proc_1 + 1157 pi_d_a4_a7_proc_1
      + 1157 pi_d_a4_a8_proc_1 + 1157 pi_d_a4_a9_proc_1 + pi_y1_a4
      + pi_y2_a4_proc_1 >= 0
 c15: pi_p_a5_a2 + pi_p_a5_a7 + pi_p_a5_a6 - pi_p_a8_a5 - pi_d_a0_a5_proc_0
      + pi_d_a5_a0_proc_0 - pi_d_a1_a5_proc_1 - pi_d_a1_a5_proc_0
      + pi_d_a5_a1_proc_1 + pi_d_a5_a1_proc_0 - pi_d_a2_a5_proc_0
      + pi_d_a5_a2_proc_0 - pi_d_a3_a5_proc_1 + pi_d_a5_a3_proc_1
      - pi_d_a4_a5_proc_1 - pi_d_a4_a5_proc_0 + pi_d_a5_a4_proc_1
      + pi_d_a5_a4_proc_0 + pi_d_a5_a6_proc_1 + pi_d_a5_a6_proc_0
      - pi_d_a6_a5_proc_1 - pi_d_a6_a5_proc_0 + pi_d_a5_a7_proc_1
      - pi_d_a7_a5_proc_1 + pi_d_a5_a8_proc_1 + pi_d_a5_a8_proc_0
      - pi_d_a8_a5_proc_1 - pi_d_a8_a5_proc_0 + pi_d_a5_a9_proc_1
      + pi_d_a5_a9_proc_0 - pi_d_a9_a5_proc_1 - pi_d_a9_a5_proc_0 >= 0
 c16: 932 pi_p_a5_a2 + 932 pi_p_a5_a7 + 932 pi_p_a5_a6 + 932 pi_d_a5_a0_proc_0
      + 932 pi_d_a5_a1_proc_0 + 932 pi_d_a5_a2_proc_0 + 932 pi_d_a5_a4_proc_0
      + 932 pi_d_a5_a6_proc_0 + 932 pi_d_a5_a8_proc_0 + 932 pi_d_a5_a9_proc_0
      + pi_y1_a5 + pi_y2_a5_proc_0 >= 0
 c17: 1167 pi_p_a5_a2 + 1167 pi_p_a5_a7 + 1167 pi_p_a5_a6
      + 1167 pi_d_a5_a1_proc_1 + 1167 pi_d_a5_a3_proc_1 + 1167 pi_d_a5_a4_proc_1
      + 1167 pi_d_a5_a6_proc_1 + 1167 pi_d_a5_a7_proc_1 + 1167 pi_d_a5_a8_proc_1
      + 1167 pi_d_a5_a9_proc_1 + pi_y1_a5 + pi_y2_a5_proc_1 >= 0
 c18: pi_p_a6_a2 - pi_p_a8_a6 - pi_p_a5_a6 - pi_d_a0_a6_proc_0
      + pi_d_a6_a0_proc_0 - pi_d_a1_a6_proc_1 - pi_d_a1_a6_proc_0
      + pi_d_a6_a1_proc_1 + pi_d_a6_a1_proc_0 - pi_d_a2_a6_proc_0
      + pi_d_a6_a2_proc_0 - pi_d_a3_a6_proc_1 + pi_d_a6_a3_proc_1
      - pi_d_a4_a6_proc_1 - pi_d_a4_a6_proc_0 + pi_d_a6_a4_proc_1
      + pi_d_a6_a4_proc_0 - pi_d_a5_a6_proc_1 - pi_d_a5_a6_proc_0
      + pi_d_a6_a5_proc_1 + pi_d_a6_a5_proc_0 + pi_d_a6_a7_proc_1
      - pi_d_a7_a6_proc_1 + pi_d_a6_a8_proc_1 + pi_d_a6_a8_proc_0
      - pi_d_a8_a6_proc_1 - pi_d_a8_a6_proc_0 + pi_d_a6_a9_proc_1
      + pi_d_a6_a9_proc_0 - pi_d_a9_a6_proc_1 - pi_d_a9_a6_proc_0 >= 0
 c19: 423 pi_p_a6_a2 + 423 pi_d_a6_a0_proc_0 + 423 pi_d_a6_a1_proc_0
      + 423 pi_d_a6_a2_proc_0 + 423 pi_d_a6_a4_proc_0 + 423 pi_d_a6_a5_proc_0
      + 423 pi_d_a6_a8_proc_0 + 423 pi_d_a6_a9_proc_0 + pi_y1_a6
      + pi_y2_a6_proc_0 >= 0
 c20: 885 pi_p_a6_a2 + 885 pi_d_a6_a1_proc_1 + 885 pi_d_a6_a3_proc_1
      + 885 pi_d_a6_a4_proc_1 + 885 pi_d_a6_a5_proc_1 + 885 pi_d_a6_a7_proc_1
      + 885 pi_d_a6_a8_proc_1 + 885 pi_d_a6_a9_proc_1 + pi_y1_a6
      + pi_y2_a6_proc_1 >= 0
 c21: - pi_p_a5_a7 + pi_p_a7_a9 - pi_d_a1_a7_proc_1 + pi_d_a7_a1_proc_1
      - pi_d_a3_a7_proc_1 + pi_d_a7_a3_proc_1 - pi_d_a4_a7_proc_1
      + pi_d_a7_a4_proc_1 - pi_d_a5_a7_proc_1 + pi_d_a7_a5_proc_1
      - pi_d_a6_a7_proc_1 + pi_d_a7_a6_proc_1 + pi_d_a7_a8_proc_1
      - pi_d_a8_a7_proc_1 + pi_d_a7_a9_proc_1 - pi_d_a9_a7_proc_1 >= 0
 c22: 1126 pi_p_a7_a9 + 1126 pi_d_a7_a1_proc_1 + 1126 pi_d_a7_a3_proc_1
      + 1126 pi_d_a7_a4_proc_1 + 1126 pi_d_a7_a5_proc_1 + 1126 pi_d_a7_a6_proc_1
      + 1126 pi_d_a7_a8_proc_1 + 1126 pi_d_a7_a9_proc_1 + pi_y1_a7
      + pi_y2_a7_proc_1 >= 0
 c23: - pi_p_a4_a8 + pi_p_a8_a6 + pi_p_a8_a5 - pi_d_a0_a8_proc_0
      + pi_d_a8_a0_proc_0 - pi_d_a1_a8_proc_1 - pi_d_a1_a8_proc_0
      + pi_d_a8_a1_proc_1 + pi_d_a8_a1_proc_0 - pi_d_a2_a8_proc_0
      + pi_d_a8_a2_proc_0 - pi_d_a3_a8_proc_1 + pi_d_a8_a3_proc_1
      - pi_d_a4_a8_proc_1 - pi_d_a4_a8_proc_0 + pi_d_a8_a4_proc_1
      + pi_d_a8_a4_proc_0 - pi_d_a5_a8_proc_1 - pi_d_a5_a8_proc_0
      + pi_d_a8_a5_proc_1 + pi_d_a8_a5_proc_0 - pi_d_a6_a8_proc_1
      - pi_d_a6_a8_proc_0 + pi_d_a8_a6_proc_1 + pi_d_a8_a6_proc_0
      - pi_d_a7_a8_proc_1 + pi_d_a8_a7_proc_1 + pi_d_a8_a9_proc_1
      + pi_d_a8_a9_proc_0 - pi_d_a9_a8_proc_1 - pi_d_a9_a8_proc_0 >= 0
 c24: 1156 pi_p_a8_a6 + 1156 pi_p_a8_a5 + 1156 pi_d_a8_a0_proc_0
      + 1156 pi_d_a8_a1_proc_0 + 1156 pi_d_a8_a2_proc_0 + 1156 pi_d_a8_a4_proc_0
      + 1156 pi_d_a8_a5_proc_0 + 1156 pi_d_a8_a6_proc_0 + 1156 pi_d_a8_a9_proc_0
      + pi_y1_a8 + pi_y2_a8_proc_0 >= 0
 c25: 842 pi_p_a8_a6 + 842 pi_p_a8_a5 + 842 pi_d_a8_a1_proc_1
      + 842 pi_d_a8_a3_proc_1 + 842 pi_d_a8_a4_proc_1 + 842 pi_d_a8_a5_proc_1
      + 842 pi_d_a8_a6_proc_1 + 842 pi_d_a8_a7_proc_1 + 842 pi_d_a8_a9_proc_1
      + pi_y1_a8 + pi_y2_a8_proc_1 >= 0
 c26: pi_p_a9_a4 - pi_p_a7_a9 - pi_d_a0_a9_proc_0 + pi_d_a9_a0_proc_0
      - pi_d_a1_a9_proc_1 - pi_d_a1_a9_proc_0 + pi_d_a9_a1_proc_1
      + pi_d_a9_a1_proc_0 - pi_d_a2_a9_proc_0 + pi_d_a9_a2_proc_0
      - pi_d_a3_a9_proc_1 + pi_d_a9_a3_proc_1 - pi_d_a4_a9_proc_1
      - pi_d_a4_a9_proc_0 + pi_d_a9_a4_proc_1 + pi_d_a9_a4_proc_0
      - pi_d_a5_a9_proc_1 - pi_d_a5_a9_proc_0 + pi_d_a9_a5_proc_1
      + pi_d_a9_a5_proc_0 - pi_d_a6_a9_proc_1 - pi_d_a6_a9_proc_0
      + pi_d_a9_a6_proc_1 + pi_d_a9_a6_proc_0 - pi_d_a7_a9_proc_1
      + pi_d_a9_a7_proc_1 - pi_d_a8_a9_proc_1 - pi_d_a8_a9_proc_0
      + pi_d_a9_a8_proc_1 + pi_d_a9_a8_proc_0 >= 0
 c27: 1193 pi_p_a9_a4 + 1193 pi_d_a9_a0_proc_0 + 1193 pi_d_a9_a1_proc_0
      + 1193 pi_d_a9_a2_proc_0 + 1193 pi_d_a9_a4_proc_0 + 1193 pi_d_a9_a5_proc_0
      + 1193 pi_d_a9_a6_proc_0 + 1193 pi_d_a9_a8_proc_0 + pi_y1_a9
      + pi_y2_a9_proc_0 >= 0
 c28: 819 pi_p_a9_a4 + 819 pi_d_a9_a1_proc_1 + 819 pi_d_a9_a3_proc_1
      + 819 pi_d_a9_a4_proc_1 + 819 pi_d_a9_a5_proc_1 + 819 pi_d_a9_a6_proc_1
      + 819 pi_d_a9_a7_proc_1 + 819 pi_d_a9_a8_proc_1 + pi_y1_a9
      + pi_y2_a9_proc_1 >= 0

Bounds
       pi_y1_a0 Free
       pi_y1_a1 Free
       pi_y1_a2 Free
       pi_y1_a3 Free
       pi_y1_a4 Free
       pi_y1_a5 Free
       pi_y1_a6 Free
       pi_y1_a7 Free
       pi_y1_a8 Free
       pi_y1_a9 Free
End
