benchmark/results/graph__10-1000-0.10-02_17/graph__10-1000-0.10-02_17_QuintonOs_Benders_aux.txt
solution for: Quinton Bounded Benders_auxiliary_sub
objective: 0.210952
status: OPTIMAL_SOLUTION(2)
pi_p_a4_a8=0.000
pi_p_a9_a4=0.000
pi_p_a7_a9=0.000
pi_d_a3_a7_proc_1=0.000
pi_d_a8_a3_proc_1=0.000
pi_y1_a3=-0.234
pi_y1_a4=-0.187
pi_y1_a7=-0.234
pi_y1_a8=-0.175
pi_y1_a9=-0.170
pi_y2_a8_proc_0=0.175
